NAME          BLANK   
ROWS
 N  OBJROW
 L  R1
 N  R2
 L  R3
 L  R4
COLUMNS
    C0        OBJROW    87.9           R1        3000.       
    C0        R3        1875.       
    C1        R1        200.           R4         -100.      
    C2        OBJROW     -40.45        R2        4000.       
    C2        R3        61.         
    C3        OBJROW    33.32          R1        2000.       
    C3        R4        6.3         
RHS
    RHS       R1        4000.          R3        7200.       
    RHS       R4        1300.       
BOUNDS
 FR BOUND     C0               1e+30
 FR BOUND     C1               1e+30
 FR BOUND     C2               1e+30
 FR BOUND     C3               1e+30
ENDATA
